Clp0006I 0  Obj 0 Primal inf 999.9999 (1000) Dual inf 6860704 (250000)
Clp0006I 200  Obj -4157157 Primal inf 304144 (1000)
Clp0006I 400  Obj -1423918 Primal inf 108832 (1000)
Clp0006I 600  Obj -26460 Primal inf 13253 (990)
Clp0006I 707  Obj -26382 Primal inf 31048 (989)
Clp0006I 782  Obj -26382 Primal inf 38153 (988)
Clp0006I 875  Obj -26382 Primal inf 51095 (989)
Clp0006I 969  Obj -26382 Primal inf 59160 (986)
Clp0006I 1089  Obj -26382 Primal inf 50075 (989)
Clp0006I 1194  Obj -26382 Primal inf 39340 (987)
Clp0006I 1293  Obj -26382 Primal inf 36937 (987)
Clp0006I 1404  Obj -26382 Primal inf 39489 (988)
Clp0006I 1508  Obj -26382 Primal inf 40192 (984)
Clp0006I 1615  Obj -26382 Primal inf 40319 (985)
Clp0006I 1718  Obj -26382 Primal inf 43710 (986)
Clp0006I 1820  Obj -26382 Primal inf 40144 (982)
Clp0006I 1927  Obj -26382 Primal inf 47378 (984)
Clp0006I 2026  Obj -26382 Primal inf 52138 (985)
Clp0006I 2119  Obj -26382 Primal inf 36601 (984)
Clp0006I 2232  Obj -26382 Primal inf 32927 (985)
Clp0006I 2343  Obj -26382 Primal inf 35905 (985)
Clp0006I 2442  Obj -26382 Primal inf 27663 (983)
Clp0006I 2556  Obj -26382 Primal inf 32287 (979)
Clp0006I 2654  Obj -26382 Primal inf 35758 (979)
Clp0006I 2754  Obj -26382 Primal inf 57682 (981)
Clp0006I 2841  Obj -26382 Primal inf 31968 (980)
Clp0006I 2948  Obj -26382 Primal inf 33997 (973)
Clp0006I 3045  Obj -26318 Primal inf 38286 (970)
Clp0006I 3154  Obj -25203 Primal inf 40224 (967)
Clp0006I 3268  Obj -25203 Primal inf 47309 (966)
Clp0006I 3358  Obj -25203 Primal inf 46226 (963)
Clp0006I 3454  Obj -25203 Primal inf 38648 (962)
Clp0006I 3545  Obj -25203 Primal inf 50133 (968)
Clp0006I 3638  Obj -25203 Primal inf 40760 (970)
Clp0006I 3740  Obj -25203 Primal inf 49352 (971)
Clp0006I 3844  Obj -25203 Primal inf 44524 (966)
Clp0006I 3936  Obj -25203 Primal inf 50694 (969)
Clp0006I 4029  Obj -25203 Primal inf 43433 (967)
Clp0006I 4132  Obj -25203 Primal inf 49121 (969)
Clp0006I 4227  Obj -25203 Primal inf 63908 (965)
Clp0006I 4306  Obj -25203 Primal inf 28495 (959)
Clp0006I 4404  Obj -25144 Primal inf 26624 (956)
Clp0006I 4510  Obj -25144 Primal inf 33723 (951)
Clp0006I 4614  Obj -25144 Primal inf 37103 (944)
Clp0006I 4711  Obj -25144 Primal inf 35445 (941)
Clp0006I 4808  Obj -25144 Primal inf 36236 (941)
Clp0006I 4909  Obj -25144 Primal inf 40975 (935)
Clp0006I 4999  Obj -25144 Primal inf 33861 (925)
Clp0006I 5099  Obj -25144 Primal inf 41440 (928)
Clp0006I 5199  Obj -25144 Primal inf 58149 (922)
Clp0006I 5298  Obj -25144 Primal inf 28667 (929)
Clp0006I 5397  Obj -25144 Primal inf 28468 (927)
Clp0006I 5495  Obj -25144 Primal inf 42908 (930)
Clp0006I 5590  Obj -25144 Primal inf 31184 (926)
Clp0006I 5694  Obj -25144 Primal inf 40648 (922)
Clp0006I 5801  Obj -25144 Primal inf 33174 (918)
Clp0006I 5894  Obj -25144 Primal inf 39941 (918)
Clp0006I 5985  Obj -25044 Primal inf 37388 (908)
Clp0006I 6083  Obj -25044 Primal inf 21114 (908)
Clp0006I 6173  Obj -25000 Primal inf 24976 (905)
Clp0006I 6263  Obj -25000 Primal inf 31044 (908)
Clp0006I 6355  Obj -25000 Primal inf 31396 (906)
Clp0006I 6441  Obj -25000 Primal inf 22064 (904)
Clp0006I 6540  Obj -25000 Primal inf 25346 (889)
Clp0006I 6632  Obj -25000 Primal inf 24030 (887)
Clp0006I 6723  Obj -25000 Primal inf 27816 (874)
Clp0006I 6815  Obj -25000 Primal inf 16356 (866)
Clp0006I 6915  Obj -25000 Primal inf 19967 (868)
Clp0006I 7015  Obj -25000 Primal inf 22177 (868)
Clp0006I 7113  Obj -25000 Primal inf 23963 (873)
Clp0006I 7201  Obj -25000 Primal inf 13395 (859)
Clp0006I 7314  Obj -25000 Primal inf 12833 (835)
Clp0006I 7404  Obj -25000 Primal inf 12579 (843)
Clp0006I 7500  Obj -25000 Primal inf 11395 (830)
Clp0006I 7602  Obj -25000 Primal inf 10509 (817)
Clp0006I 7704  Obj -25000 Primal inf 13742 (812)
Clp0006I 7799  Obj -25000 Primal inf 14173 (813)
Clp0006I 7896  Obj -25000 Primal inf 12169 (803)
Clp0006I 8000  Obj -25000 Primal inf 15755 (784)
Clp0006I 8101  Obj -25000 Primal inf 16565 (777)
Clp0006I 8210  Obj -25000 Primal inf 16226 (778)
Clp0006I 8297  Obj -25000 Primal inf 13813 (770)
Clp0006I 8399  Obj -25000 Primal inf 12671 (779)
Clp0006I 8502  Obj -25000 Primal inf 14926 (769)
Clp0006I 8602  Obj -25000 Primal inf 12981 (771)
Clp0006I 8697  Obj -25000 Primal inf 6668.9999 (764)
Clp0006I 8800  Obj -25000 Primal inf 4255.9999 (735)
Clp0006I 8909  Obj -25000 Primal inf 5356.9999 (718)
Clp0006I 9006  Obj -25000 Primal inf 7046.9999 (712)
Clp0006I 9107  Obj -25000 Primal inf 4434.9999 (703)
Clp0006I 9210  Obj -25000 Primal inf 4690.9999 (686)
Clp0006I 9310  Obj -25000 Primal inf 5300.9999 (690)
Clp0006I 9408  Obj -25000 Primal inf 5746.9999 (687)
Clp0006I 9505  Obj -25000 Primal inf 5995.9999 (687)
Clp0006I 9599  Obj -25000 Primal inf 5677.9999 (674)
Clp0006I 9699  Obj -25000 Primal inf 6176.9999 (660)
Clp0006I 9802  Obj -25000 Primal inf 8039.9999 (667)
Clp0006I 9897  Obj -25000 Primal inf 8141.9999 (659)
Clp0006I 9989  Obj -25000 Primal inf 6607.9999 (652)
Clp0006I 10075  Obj -25000 Primal inf 3038.9999 (636)
Clp0006I 10188  Obj -25000 Primal inf 2808.9999 (654)
Clp0006I 10282  Obj -25000 Primal inf 4097.9999 (645)
Clp0006I 10370  Obj -25000 Primal inf 3862.9999 (643)
Clp0006I 10454  Obj -25000 Primal inf 3930.9999 (643)
Clp0006I 10545  Obj -25000 Primal inf 1758.9999 (627)
Clp0006I 10650  Obj -25000 Primal inf 2312.9999 (607)
Clp0006I 10746  Obj -25000 Primal inf 2739.9999 (610)
Clp0006I 10835  Obj -25000 Primal inf 2814.9999 (607)
Clp0006I 10934  Obj -25000 Primal inf 2562.9999 (586)
Clp0006I 11023  Obj -25000 Primal inf 1878.9999 (558)
Clp0006I 11146  Obj -25000 Primal inf 2438.9999 (590)
Clp0006I 11253  Obj -25000 Primal inf 1580.9999 (567)
Clp0006I 11342  Obj -25000 Primal inf 2443.9999 (578)
Clp0006I 11432  Obj -25000 Primal inf 1566.9999 (551)
Clp0006I 11554  Obj -25000 Primal inf 1375.9999 (542)
Clp0006I 11660  Obj -25000 Primal inf 1336.9999 (515)
Clp0006I 11754  Obj -25000 Primal inf 2037.9999 (503)
Clp0006I 11843  Obj -25000 Primal inf 2280.9999 (504)
Clp0006I 11934  Obj -25000 Primal inf 1688 (492)
Clp0006I 12047  Obj -25000 Primal inf 1998 (479)
Clp0006I 12134  Obj -25000 Primal inf 1720 (484)
Clp0006I 12238  Obj -25000 Primal inf 696.99996 (386)
Clp0006I 12353  Obj -25000 Primal inf 1308 (292)
Clp0006I 12453  Obj -25000 Primal inf 512.99997 (250)
Clp0006I 12577  Obj -25000 Primal inf 966.99998 (232)
Clp0006I 12666  Obj -25000 Primal inf 353.99998 (169)
Clp0006I 12778  Obj -25000 Primal inf 569.99998 (173)
Clp0006I 12866  Obj -25000 Primal inf 255.99999 (114)
Clp0006I 12964  Obj -25000 Primal inf 189.99999 (101)
Clp0006I 13087  Obj -25000 Primal inf 225.99999 (72)
Clp0006I 13187  Obj -25000 Primal inf 53.999997 (33)
Clp0006I 13297  Obj -25000 Primal inf 176.99999 (57)
Clp0006I 13394  Obj -25000 Primal inf 65.999997 (34)
Clp0006I 13501  Obj -25000 Primal inf 20.999998 (21)
Clp0006I 13506  Obj -25000
Clp0000I Optimal - objective value -25000
Clp0000I Optimal - objective value -25000
Node 0 depth 0 unsatisfied 0 sum 0 obj -25000 guess -25000 branching on -1
Clp0000I Optimal - objective value -25000
Cbc0004I Integer solution of -25000 found after 0 iterations and 0 nodes (30.26 seconds)
Cbc0001I Search completed - best objective -25000, took 0 iterations and 0 nodes (30.35 seconds)
Cbc0035I Maximum depth 0, 0 variables fixed on reduced cost
Clp0000I Optimal - objective value -25000
Clp0000I Optimal - objective value -25000
x_28 = 1
x_593 = 1
x_1014 = 1
x_1638 = 1
x_2322 = 1
x_2819 = 1
x_3209 = 1
x_3845 = 1
x_4355 = 1
x_4755 = 1
x_5230 = 1
x_5563 = 1
x_6272 = 1
x_6769 = 1
x_7331 = 1
x_7548 = 1
x_8453 = 1
x_8791 = 1
x_9011 = 1
x_9503 = 1
x_10301 = 1
x_10915 = 1
x_11168 = 1
x_11646 = 1
x_12207 = 1
x_12917 = 1
x_13177 = 1
x_13726 = 1
x_14151 = 1
x_14761 = 1
x_15229 = 1
x_15836 = 1
x_16165 = 1
x_16619 = 1
x_17353 = 1
x_17937 = 1
x_18098 = 1
x_18921 = 1
x_19395 = 1
x_19757 = 1
x_20377 = 1
x_20721 = 1
x_21214 = 1
x_21556 = 1
x_22344 = 1
x_22737 = 1
x_23142 = 1
x_23927 = 1
x_24332 = 1
x_24654 = 1
x_25467 = 1
x_25756 = 1
x_26008 = 1
x_26659 = 1
x_27211 = 1
x_27648 = 1
x_28174 = 1
x_28880 = 1
x_29067 = 1
x_29785 = 1
x_30394 = 1
x_30776 = 1
x_31410 = 1
x_31631 = 1
x_32127 = 1
x_32790 = 1
x_33425 = 1
x_33747 = 1
x_34066 = 1
x_34520 = 1
x_35287 = 1
x_35734 = 1
x_36428 = 1
x_36578 = 1
x_37267 = 1
x_37843 = 1
x_38250 = 1
x_38753 = 1
x_39298 = 1
x_39706 = 1
x_40140 = 1
x_40604 = 1
x_41245 = 1
x_41685 = 1
x_42126 = 1
x_42602 = 1
x_43029 = 1
x_43735 = 1
x_44086 = 1
x_44818 = 1
x_45137 = 1
x_45814 = 1
x_46082 = 1
x_46597 = 1
x_47466 = 1
x_47540 = 1
x_48160 = 1
x_48792 = 1
x_49271 = 1
x_49820 = 1
x_50089 = 1
x_50763 = 1
x_51033 = 1
x_51732 = 1
x_52065 = 1
x_52758 = 1
x_53392 = 1
x_53510 = 1
x_54050 = 1
x_54739 = 1
x_55356 = 1
x_55712 = 1
x_56116 = 1
x_56523 = 1
x_57284 = 1
x_57538 = 1
x_58216 = 1
x_58815 = 1
x_59430 = 1
x_59526 = 1
x_60107 = 1
x_60906 = 1
x_61325 = 1
x_61802 = 1
x_62021 = 1
x_62527 = 1
x_63359 = 1
x_63543 = 1
x_64231 = 1
x_64781 = 1
x_65191 = 1
x_65698 = 1
x_66328 = 1
x_66888 = 1
x_67233 = 1
x_67517 = 1
x_68220 = 1
x_68551 = 1
x_69362 = 1
x_69652 = 1
x_70054 = 1
x_70689 = 1
x_71030 = 1
x_71702 = 1
x_72085 = 1
x_72717 = 1
x_73110 = 1
x_73561 = 1
x_74007 = 1
x_74629 = 1
x_75153 = 1
x_75564 = 1
x_76167 = 1
x_76594 = 1
x_77092 = 1
x_77774 = 1
x_78259 = 1
x_78599 = 1
x_79227 = 1
x_79676 = 1
x_80463 = 1
x_80788 = 1
x_81200 = 1
x_81811 = 1
x_82130 = 1
x_82786 = 1
x_83268 = 1
x_83679 = 1
x_84120 = 1
x_84555 = 1
x_85173 = 1
x_85805 = 1
x_86228 = 1
x_86976 = 1
x_87223 = 1
x_87645 = 1
x_88015 = 1
x_88705 = 1
x_89045 = 1
x_89647 = 1
x_90364 = 1
x_90744 = 1
x_91273 = 1
x_91693 = 1
x_92032 = 1
x_92569 = 1
x_93114 = 1
x_93886 = 1
x_94469 = 1
x_94562 = 1
x_95384 = 1
x_95549 = 1
x_96260 = 1
x_96699 = 1
x_97242 = 1
x_97544 = 1
x_98133 = 1
x_98643 = 1
x_99266 = 1
x_99904 = 1
x_100002 = 1
x_100558 = 1
x_101083 = 1
x_101501 = 1
x_102195 = 1
x_102644 = 1
x_103124 = 1
x_103542 = 1
x_104374 = 1
x_104522 = 1
x_105240 = 1
x_105751 = 1
x_106265 = 1
x_106621 = 1
x_107139 = 1
x_107588 = 1
x_108095 = 1
x_108752 = 1
x_109060 = 1
x_109872 = 1
x_110412 = 1
x_110835 = 1
x_111208 = 1
x_111600 = 1
x_112277 = 1
x_112628 = 1
x_113180 = 1
x_113650 = 1
x_114103 = 1
x_114662 = 1
x_115236 = 1
x_115596 = 1
x_116175 = 1
x_116559 = 1
x_117123 = 1
x_117568 = 1
x_118118 = 1
x_118883 = 1
x_119310 = 1
x_119974 = 1
x_120018 = 1
x_120658 = 1
x_121111 = 1
x_121557 = 1
x_122378 = 1
x_122956 = 1
x_123004 = 1
x_123701 = 1
x_124072 = 1
x_124719 = 1
x_125326 = 1
x_125535 = 1
x_126156 = 1
x_126636 = 1
x_127241 = 1
x_127725 = 1
x_128155 = 1
x_128524 = 1
x_129157 = 1
x_129977 = 1
x_130407 = 1
x_130509 = 1
x_131108 = 1
x_131613 = 1
x_132308 = 1
x_132531 = 1
x_133248 = 1
x_133669 = 1
x_134013 = 1
x_134664 = 1
x_135358 = 1
x_135916 = 1
x_136178 = 1
x_136838 = 1
x_137166 = 1
x_137625 = 1
x_138334 = 1
x_138671 = 1
x_139443 = 1
x_139865 = 1
x_140181 = 1
x_140873 = 1
x_141375 = 1
x_141817 = 1
x_142213 = 1
x_142704 = 1
x_143170 = 1
x_143574 = 1
x_144194 = 1
x_144546 = 1
x_145034 = 1
x_145710 = 1
x_146076 = 1
x_146525 = 1
x_147487 = 1
x_147837 = 1
x_148347 = 1
x_148505 = 1
x_149357 = 1
x_149770 = 1
x_150115 = 1
x_150893 = 1
x_151117 = 1
x_151684 = 1
x_152295 = 1
x_152696 = 1
x_153279 = 1
x_153797 = 1
x_154408 = 1
x_154580 = 1
x_155418 = 1
x_155584 = 1
x_156419 = 1
x_156972 = 1
x_157224 = 1
x_157803 = 1
x_158399 = 1
x_158581 = 1
x_159134 = 1
x_159812 = 1
x_160087 = 1
x_160605 = 1
x_161186 = 1
x_161682 = 1
x_162052 = 1
x_162738 = 1
x_163324 = 1
x_163799 = 1
x_164149 = 1
x_164591 = 1
x_165280 = 1
x_165541 = 1
x_166346 = 1
x_166697 = 1
x_167073 = 1
x_167571 = 1
x_168141 = 1
x_168553 = 1
x_169183 = 1
x_169703 = 1
x_170409 = 1
x_170590 = 1
x_171329 = 1
x_171794 = 1
x_172449 = 1
x_172789 = 1
x_173371 = 1
x_173975 = 1
x_174112 = 1
x_174980 = 1
x_175327 = 1
x_175839 = 1
x_176106 = 1
x_176931 = 1
x_177275 = 1
x_177993 = 1
x_178282 = 1
x_178944 = 1
x_179172 = 1
x_179577 = 1
x_180389 = 1
x_180519 = 1
x_181161 = 1
x_181971 = 1
x_182012 = 1
x_182635 = 1
x_183079 = 1
x_183516 = 1
x_184309 = 1
x_184601 = 1
x_185306 = 1
x_185813 = 1
x_186222 = 1
x_186764 = 1
x_187432 = 1
x_187994 = 1
x_188497 = 1
x_188885 = 1
x_189000 = 1
x_189999 = 1
x_190367 = 1
x_190920 = 1
x_191360 = 1
x_191715 = 1
x_192243 = 1
x_192850 = 1
x_193283 = 1
x_193948 = 1
x_194246 = 1
x_194821 = 1
x_195450 = 1
x_195962 = 1
x_196333 = 1
x_196800 = 1
x_197413 = 1
x_197804 = 1
x_198411 = 1
x_198863 = 1
x_199478 = 1
x_199947 = 1
x_200188 = 1
x_200852 = 1
x_201402 = 1
x_201985 = 1
x_202439 = 1
x_202959 = 1
x_203382 = 1
x_203938 = 1
x_204278 = 1
x_204922 = 1
x_205163 = 1
x_205854 = 1
x_206482 = 1
x_206536 = 1
x_207379 = 1
x_207986 = 1
x_208440 = 1
x_208924 = 1
x_209132 = 1
x_209830 = 1
x_210490 = 1
x_210690 = 1
x_211426 = 1
x_211995 = 1
x_212479 = 1
x_212861 = 1
x_213481 = 1
x_213936 = 1
x_214391 = 1
x_214901 = 1
x_215368 = 1
x_215929 = 1
x_216075 = 1
x_216848 = 1
x_217037 = 1
x_217945 = 1
x_218390 = 1
x_218547 = 1
x_219452 = 1
x_219896 = 1
x_220455 = 1
x_220841 = 1
x_221340 = 1
x_221973 = 1
x_222397 = 1
x_222935 = 1
x_223296 = 1
x_223957 = 1
x_224351 = 1
x_224998 = 1
x_225369 = 1
x_225876 = 1
x_226323 = 1
x_226951 = 1
x_227434 = 1
x_227609 = 1
x_228254 = 1
x_228539 = 1
x_229316 = 1
x_229905 = 1
x_230398 = 1
x_230914 = 1
x_231387 = 1
x_231881 = 1
x_232492 = 1
x_232849 = 1
x_233491 = 1
x_233964 = 1
x_234122 = 1
x_234941 = 1
x_235442 = 1
x_235718 = 1
x_236249 = 1
x_236793 = 1
x_237433 = 1
x_237866 = 1
x_238465 = 1
x_238954 = 1
x_239458 = 1
x_239807 = 1
x_240262 = 1
x_240968 = 1
x_241342 = 1
x_241687 = 1
x_242006 = 1
x_242988 = 1
x_243400 = 1
x_243960 = 1
x_244070 = 1
x_244983 = 1
x_245370 = 1
x_245923 = 1
x_246461 = 1
x_246996 = 1
x_247403 = 1
x_247692 = 1
x_248470 = 1
x_248989 = 1
x_249484 = 1
x_249946 = 1
real 0m31,586s user 0m31,261s sys 0m0,274s
